commons/LK_FILES/TIC19-10-10-4.tsp
NAME: TIC19-10-10-4
TYPE: TSP
COMMENT: TSP
DIMENSION: 7
EDGE_WEIGHT_TYPE: EXPLICIT
EDGE_WEIGHT_FORMAT: FULL_MATRIX
EDGE_WEIGHT_SECTION
0 436 68 409 145 363 318 
436 0 280 151 355 444 85 
68 280 0 90 341 260 91 
409 151 90 0 101 218 320 
145 355 341 101 0 385 80 
363 444 260 218 385 0 247 
318 85 91 320 80 247 0 
EOF
