commons/LK_FILES/TIC19-10-10-4.tour
NAME : TIC19-10-10-4.1007.tour
COMMENT : Length = 1007
COMMENT : Found by LKH [Keld Helsgaun] Thu Dec 15 16:56:42 2016
TYPE : TOUR
DIMENSION : 7
TOUR_SECTION
1
3
6
4
2
7
5
-1
EOF
